p cnf 33 52
-27 9 0 
-3 16 0 
-33 8 0 
-10 19 0 
-9 27 0 
-6 26 0 
-8 32 0 
-1 17 0 
-18 10 0 
2 5 0 
-11 30 0 
-14 1 0 
-16 3 0 
-28 2 0 
-20 1 0 
-1 20 0 
-1 14 0 
-4 29 0 
-31 5 0 
-11 21 0 
-15 4 0 
-21 11 0 
-4 15 0 
-23 9 0 
-8 19 0 
-30 1 11 0 
-4 17 0 
-5 32 0 
-19 8 10 0 
-8 12 0 
-10 24 0 
-26 6 0 
-25 2 5 0 
-10 18 0 
-6 22 0 
-24 10 0 
-10 32 0 
-29 4 0 
-1 30 0 
-2 25 0 
-13 10 0 
-32 5 8 10 0 
-12 7 8 0 
-7 12 0 
-17 1 4 0 
-10 13 0 
-5 25 0 
-8 33 0 
-5 31 0 
-2 28 0 
-22 6 0 
-9 23 0 
